35
2	4	6	7	11	12	14	18	21	22	23	27	33	34	35	0
1	6	10	11	14	15	16	18	22	24	25	28	30	34	0
5	6	7	8	11	13	14	17	18	21	25	27	29	30	31	33	34	0
1	5	8	9	12	13	15	17	20	25	26	30	34	0
3	4	7	9	17	24	25	26	27	30	32	33	0
1	2	3	8	11	14	20	21	22	24	25	26	27	29	33	0
1	3	5	10	11	14	15	16	18	19	27	28	29	30	31	32	34	0
3	4	6	13	19	24	28	29	30	33	34	35	0
4	5	10	11	14	16	20	21	22	23	24	26	28	35	0
2	7	9	12	15	16	19	22	23	24	29	30	33	0
1	2	3	6	7	9	12	13	21	23	24	25	28	33	34	0
1	4	10	11	17	19	27	28	31	35	0
3	4	8	11	15	17	22	24	28	33	0
1	2	3	6	7	9	15	19	23	26	28	35	0
2	4	7	10	13	14	20	21	22	24	25	26	27	28	29	31	34	35	0
2	7	9	10	19	20	22	23	25	30	31	32	33	34	0
3	4	5	12	13	20	21	22	26	28	32	0
1	2	3	7	25	27	28	29	30	31	32	33	0
7	8	10	12	14	16	22	25	26	32	34	35	0
4	6	9	15	16	17	22	23	24	25	26	31	32	33	34	0
1	3	6	9	11	15	17	24	27	31	35	0
1	2	6	9	10	13	15	16	17	19	20	24	32	0
1	9	10	11	14	16	20	24	25	26	29	30	32	0
2	5	6	8	9	10	11	13	15	20	21	22	23	25	26	28	30	32	35	0
2	3	4	5	6	11	15	16	18	19	20	23	24	27	28	32	35	0
4	5	6	9	14	15	17	19	20	23	24	27	32	34	0
1	3	5	6	7	12	15	18	21	25	26	33	0
2	7	8	9	11	12	13	14	15	17	18	24	25	30	35	0
3	6	7	8	10	15	18	23	32	34	0
2	3	4	5	7	8	10	16	18	23	24	28	32	0
3	7	12	15	16	18	20	21	33	0
5	7	16	17	18	19	20	22	23	24	25	26	29	30	35	0
1	3	5	6	8	10	11	13	16	18	20	27	31	34	0
1	2	3	4	7	8	11	15	16	19	20	26	29	33	0
1	8	9	12	14	15	19	21	24	25	28	32	0


comments:
random graph
nodes 35
edges 236
rng seed 54 
